c generated by sgen
p cnf 73 156
-2 -3 -4 0
-1 -3 -4 0
-1 -2 -4 0
-1 -2 -3 0
-6 -7 -8 0
-5 -7 -8 0
-5 -6 -8 0
-5 -6 -7 0
-10 -11 -12 0
-9 -11 -12 0
-9 -10 -12 0
-9 -10 -11 0
-14 -15 -16 0
-13 -15 -16 0
-13 -14 -16 0
-13 -14 -15 0
-18 -19 -20 0
-17 -19 -20 0
-17 -18 -20 0
-17 -18 -19 0
-22 -23 -24 0
-21 -23 -24 0
-21 -22 -24 0
-21 -22 -23 0
-26 -27 -28 0
-25 -27 -28 0
-25 -26 -28 0
-25 -26 -27 0
-30 -31 -32 0
-29 -31 -32 0
-29 -30 -32 0
-29 -30 -31 0
-34 -35 -36 0
-33 -35 -36 0
-33 -34 -36 0
-33 -34 -35 0
-38 -39 -40 0
-37 -39 -40 0
-37 -38 -40 0
-37 -38 -39 0
-42 -43 -44 0
-41 -43 -44 0
-41 -42 -44 0
-41 -42 -43 0
-46 -47 -48 0
-45 -47 -48 0
-45 -46 -48 0
-45 -46 -47 0
-50 -51 -52 0
-49 -51 -52 0
-49 -50 -52 0
-49 -50 -51 0
-54 -55 -56 0
-53 -55 -56 0
-53 -54 -56 0
-53 -54 -55 0
-58 -59 -60 0
-57 -59 -60 0
-57 -58 -60 0
-57 -58 -59 0
-62 -63 -64 0
-61 -63 -64 0
-61 -62 -64 0
-61 -62 -63 0
-66 -67 -68 0
-65 -67 -68 0
-65 -66 -68 0
-65 -66 -67 0
-69 -70 -71 0
-69 -70 -72 0
-69 -70 -73 0
-69 -71 -72 0
-69 -71 -73 0
-69 -72 -73 0
-70 -71 -72 0
-70 -71 -73 0
-70 -72 -73 0
-71 -72 -73 0
25 40 61 0
65 40 61 0
65 25 61 0
65 25 40 0
7 49 32 0
44 49 32 0
44 7 32 0
44 7 49 0
9 35 52 0
66 35 52 0
66 9 52 0
66 9 35 0
33 3 45 0
55 3 45 0
55 33 45 0
55 33 3 0
58 13 38 0
19 13 38 0
19 58 38 0
19 58 13 0
47 51 72 0
37 51 72 0
37 47 72 0
37 47 51 0
5 73 18 0
63 73 18 0
63 5 18 0
63 5 73 0
57 68 8 0
4 68 8 0
4 57 8 0
4 57 68 0
27 6 22 0
34 6 22 0
34 27 22 0
34 27 6 0
60 29 62 0
54 29 62 0
54 60 62 0
54 60 29 0
69 21 67 0
56 21 67 0
56 69 67 0
56 69 21 0
12 48 28 0
31 48 28 0
31 12 28 0
31 12 48 0
10 46 59 0
43 46 59 0
43 10 59 0
43 10 46 0
70 41 39 0
36 41 39 0
36 70 39 0
36 70 41 0
17 1 11 0
23 1 11 0
23 17 11 0
23 17 1 0
15 71 30 0
2 71 30 0
2 15 30 0
2 15 71 0
16 64 42 0
24 64 42 0
24 16 42 0
24 16 64 0
53 20 14 0
53 20 50 0
53 20 26 0
53 14 50 0
53 14 26 0
53 50 26 0
20 14 50 0
20 14 26 0
20 50 26 0
14 50 26 0
